c User generated cnf file
p cnf 15 72
11 -5 12 0 
11 -3 6 0 
-5 7 15 0 
-4 3 10 0 
3 -15 6 0 
11 -15 15 0 
2 -4 8 0 
5 -5 13 0 
11 2 -12 0 
11 -3 2 0 
-15 12 2 0 
1 -5 14 0 
11 -10 3 0 
8 7 -10 0 
3 3 -4 0 
9 -13 4 0 
8 -8 15 0 
3 2 -15 0 
12 -4 3 0 
-12 14 13 0 
-8 5 9 0 
8 -13 9 0 
9 12 -12 0 
12 -13 15 0 
7 -3 8 0 
-15 9 10 0 
-10 7 10 0 
13 8 -12 0 
-5 3 7 0 
7 -10 7 0 
5 5 -3 0 
6 8 -14 0 
11 -4 1 0 
12 4 -13 0 
9 -14 12 0 
15 -10 10 0 
10 10 -4 0 
13 -1 2 0 
-2 6 8 0 
13 9 -13 0 
6 -15 13 0 
5 -1 5 0 
-1 12 10 0 
11 -1 13 0 
9 3 -1 0 
-11 2 15 0 
9 10 -2 0 
4 -15 5 0 
-13 9 11 0 
15 14 -11 0 
12 -12 13 0 
14 11 -11 0 
10 10 -8 0 
8 3 -10 0 
8 -15 15 0 
8 5 -14 0 
14 13 -4 0 
1 10 -12 0 
12 -3 12 0 
7 12 -6 0 
-9 15 11 0 
13 -7 1 0 
15 -14 10 0 
-4 4 1 0 
-13 3 10 0 
-14 2 10 0 
-15 14 9 0 
-6 9 2 0 
13 6 -12 0 
14 6 -3 0 
-13 4 3 0 
3 15 -8 0 
